\ Model Model: H-KMedian-N_copy
\ LP format - for model browsing. Use MPS format to capture full model detail.
Minimize
 
Subject To
 R1: x[1,0,-1,0] + x[2,0,-1,0] + x[3,0,-1,0] = 1
 R25: - x[1,0,-1,0] = 0
 R199: - x[2,0,-1,0] = 0
 R373: - x[3,0,-1,0] = 0
Bounds
Binaries
 x[1,0,-1,0] x[2,0,-1,0] x[3,0,-1,0]
End
